(set-logic QF_LRA)
(declare-fun X0 () Real )
(declare-fun Y0 () Real )
(declare-fun X1 () Real )
(declare-fun Y1 () Real )
(declare-fun X2 () Real )
(declare-fun Y2 () Real )
(declare-fun X3 () Real )
(declare-fun Y3 () Real )
(declare-fun X4 () Real )
(declare-fun Y4 () Real )
(declare-fun X5 () Real )
(declare-fun Y5 () Real )
(declare-fun X6 () Real )
(declare-fun Y6 () Real )
(declare-fun X7 () Real )
(declare-fun Y7 () Real )
(declare-fun X8 () Real )
(declare-fun Y8 () Real )
(declare-fun Z () Real )
(assert ( and  
( or ( <= ( + X0 5 ) X1 )  ( <= ( + X1 19 ) X0 )  ( <= ( + Y0 89 ) Y1 )  ( <= ( + Y1 87 ) Y0 )  )
( or ( <= ( + X0 5 ) X2 )  ( <= ( + X2 10 ) X0 )  ( <= ( + Y0 89 ) Y2 )  ( <= ( + Y2 62 ) Y0 )  )
( or ( <= ( + X0 5 ) X3 )  ( <= ( + X3 69 ) X0 )  ( <= ( + Y0 89 ) Y3 )  ( <= ( + Y3 63 ) Y0 )  )
( or ( <= ( + X0 5 ) X4 )  ( <= ( + X4 71 ) X0 )  ( <= ( + Y0 89 ) Y4 )  ( <= ( + Y4 25 ) Y0 )  )
( or ( <= ( + X0 5 ) X5 )  ( <= ( + X5 53 ) X0 )  ( <= ( + Y0 89 ) Y5 )  ( <= ( + Y5 81 ) Y0 )  )
( or ( <= ( + X0 5 ) X6 )  ( <= ( + X6 85 ) X0 )  ( <= ( + Y0 89 ) Y6 )  ( <= ( + Y6 57 ) Y0 )  )
( or ( <= ( + X0 5 ) X7 )  ( <= ( + X7 32 ) X0 )  ( <= ( + Y0 89 ) Y7 )  ( <= ( + Y7 72 ) Y0 )  )
( or ( <= ( + X0 5 ) X8 )  ( <= ( + X8 59 ) X0 )  ( <= ( + Y0 89 ) Y8 )  ( <= ( + Y8 19 ) Y0 )  )
( or ( <= ( + X1 19 ) X2 )  ( <= ( + X2 10 ) X1 )  ( <= ( + Y1 87 ) Y2 )  ( <= ( + Y2 62 ) Y1 )  )
( or ( <= ( + X1 19 ) X3 )  ( <= ( + X3 69 ) X1 )  ( <= ( + Y1 87 ) Y3 )  ( <= ( + Y3 63 ) Y1 )  )
( or ( <= ( + X1 19 ) X4 )  ( <= ( + X4 71 ) X1 )  ( <= ( + Y1 87 ) Y4 )  ( <= ( + Y4 25 ) Y1 )  )
( or ( <= ( + X1 19 ) X5 )  ( <= ( + X5 53 ) X1 )  ( <= ( + Y1 87 ) Y5 )  ( <= ( + Y5 81 ) Y1 )  )
( or ( <= ( + X1 19 ) X6 )  ( <= ( + X6 85 ) X1 )  ( <= ( + Y1 87 ) Y6 )  ( <= ( + Y6 57 ) Y1 )  )
( or ( <= ( + X1 19 ) X7 )  ( <= ( + X7 32 ) X1 )  ( <= ( + Y1 87 ) Y7 )  ( <= ( + Y7 72 ) Y1 )  )
( or ( <= ( + X1 19 ) X8 )  ( <= ( + X8 59 ) X1 )  ( <= ( + Y1 87 ) Y8 )  ( <= ( + Y8 19 ) Y1 )  )
( or ( <= ( + X2 10 ) X3 )  ( <= ( + X3 69 ) X2 )  ( <= ( + Y2 62 ) Y3 )  ( <= ( + Y3 63 ) Y2 )  )
( or ( <= ( + X2 10 ) X4 )  ( <= ( + X4 71 ) X2 )  ( <= ( + Y2 62 ) Y4 )  ( <= ( + Y4 25 ) Y2 )  )
( or ( <= ( + X2 10 ) X5 )  ( <= ( + X5 53 ) X2 )  ( <= ( + Y2 62 ) Y5 )  ( <= ( + Y5 81 ) Y2 )  )
( or ( <= ( + X2 10 ) X6 )  ( <= ( + X6 85 ) X2 )  ( <= ( + Y2 62 ) Y6 )  ( <= ( + Y6 57 ) Y2 )  )
( or ( <= ( + X2 10 ) X7 )  ( <= ( + X7 32 ) X2 )  ( <= ( + Y2 62 ) Y7 )  ( <= ( + Y7 72 ) Y2 )  )
( or ( <= ( + X2 10 ) X8 )  ( <= ( + X8 59 ) X2 )  ( <= ( + Y2 62 ) Y8 )  ( <= ( + Y8 19 ) Y2 )  )
( or ( <= ( + X3 69 ) X4 )  ( <= ( + X4 71 ) X3 )  ( <= ( + Y3 63 ) Y4 )  ( <= ( + Y4 25 ) Y3 )  )
( or ( <= ( + X3 69 ) X5 )  ( <= ( + X5 53 ) X3 )  ( <= ( + Y3 63 ) Y5 )  ( <= ( + Y5 81 ) Y3 )  )
( or ( <= ( + X3 69 ) X6 )  ( <= ( + X6 85 ) X3 )  ( <= ( + Y3 63 ) Y6 )  ( <= ( + Y6 57 ) Y3 )  )
( or ( <= ( + X3 69 ) X7 )  ( <= ( + X7 32 ) X3 )  ( <= ( + Y3 63 ) Y7 )  ( <= ( + Y7 72 ) Y3 )  )
( or ( <= ( + X3 69 ) X8 )  ( <= ( + X8 59 ) X3 )  ( <= ( + Y3 63 ) Y8 )  ( <= ( + Y8 19 ) Y3 )  )
( or ( <= ( + X4 71 ) X5 )  ( <= ( + X5 53 ) X4 )  ( <= ( + Y4 25 ) Y5 )  ( <= ( + Y5 81 ) Y4 )  )
( or ( <= ( + X4 71 ) X6 )  ( <= ( + X6 85 ) X4 )  ( <= ( + Y4 25 ) Y6 )  ( <= ( + Y6 57 ) Y4 )  )
( or ( <= ( + X4 71 ) X7 )  ( <= ( + X7 32 ) X4 )  ( <= ( + Y4 25 ) Y7 )  ( <= ( + Y7 72 ) Y4 )  )
( or ( <= ( + X4 71 ) X8 )  ( <= ( + X8 59 ) X4 )  ( <= ( + Y4 25 ) Y8 )  ( <= ( + Y8 19 ) Y4 )  )
( or ( <= ( + X5 53 ) X6 )  ( <= ( + X6 85 ) X5 )  ( <= ( + Y5 81 ) Y6 )  ( <= ( + Y6 57 ) Y5 )  )
( or ( <= ( + X5 53 ) X7 )  ( <= ( + X7 32 ) X5 )  ( <= ( + Y5 81 ) Y7 )  ( <= ( + Y7 72 ) Y5 )  )
( or ( <= ( + X5 53 ) X8 )  ( <= ( + X8 59 ) X5 )  ( <= ( + Y5 81 ) Y8 )  ( <= ( + Y8 19 ) Y5 )  )
( or ( <= ( + X6 85 ) X7 )  ( <= ( + X7 32 ) X6 )  ( <= ( + Y6 57 ) Y7 )  ( <= ( + Y7 72 ) Y6 )  )
( or ( <= ( + X6 85 ) X8 )  ( <= ( + X8 59 ) X6 )  ( <= ( + Y6 57 ) Y8 )  ( <= ( + Y8 19 ) Y6 )  )
( or ( <= ( + X7 32 ) X8 )  ( <= ( + X8 59 ) X7 )  ( <= ( + Y7 72 ) Y8 )  ( <= ( + Y8 19 ) Y7 )  )
( >= X0 0)
( <= ( + X0 5) Z)
( >= Y0 0)
( <= ( + Y0 89 ) 100)
( >= X1 0)
( <= ( + X1 19) Z)
( >= Y1 0)
( <= ( + Y1 87 ) 100)
( >= X2 0)
( <= ( + X2 10) Z)
( >= Y2 0)
( <= ( + Y2 62 ) 100)
( >= X3 0)
( <= ( + X3 69) Z)
( >= Y3 0)
( <= ( + Y3 63 ) 100)
( >= X4 0)
( <= ( + X4 71) Z)
( >= Y4 0)
( <= ( + Y4 25 ) 100)
( >= X5 0)
( <= ( + X5 53) Z)
( >= Y5 0)
( <= ( + Y5 81 ) 100)
( >= X6 0)
( <= ( + X6 85) Z)
( >= Y6 0)
( <= ( + Y6 57 ) 100)
( >= X7 0)
( <= ( + X7 32) Z)
( >= Y7 0)
( <= ( + Y7 72 ) 100)
( >= X8 0)
( <= ( + X8 59) Z)
( >= Y8 0)
( <= ( + Y8 19 ) 100)
) )
(minimize Z)
(check-sat)
